NAME: ACTUAL_TOURS/amz2536
TYPE: TOUR
COMMENT: RouteID_286e9d94-bb58-499a-869d-415710d7d32e
DIMENSION: 127
TOUR_SECTION
64
72
8
93
48
56
125
118
90
75
9
44
96
124
100
52
108
88
69
13
39
43
99
47
68
67
122
84
85
28
119
54
51
22
4
104
89
113
102
1
34
2
74
117
14
5
77
31
7
92
49
23
62
36
21
11
115
70
65
24
6
30
42
83
126
109
20
86
107
111
95
26
76
127
46
103
112
25
78
114
16
19
110
55
82
97
32
53
15
59
101
121
81
91
71
106
120
58
35
98
50
60
41
94
17
87
73
40
33
123
3
79
38
27
12
57
10
63
61
37
105
18
66
116
80
45
29
-1
EOF
